; SWAP1 SWAP2 SWAP1 POP => POP SWAP1
(set-option :produce-proofs true)
; 
(set-info :status unknown)
(declare-fun storage_t ((_ BitVec 256) (_ BitVec 256) (_ BitVec 256) Int (_ BitVec 256)) (_ BitVec 256))
(declare-fun storage_s ((_ BitVec 256) (_ BitVec 256) (_ BitVec 256) Int (_ BitVec 256)) (_ BitVec 256))
(declare-fun exc_halt_t (Int) Bool)
(declare-fun exc_halt_s (Int) Bool)
(declare-fun sc_t (Int) (_ BitVec 6))
(declare-fun stack_t ((_ BitVec 256) (_ BitVec 256) (_ BitVec 256) Int (_ BitVec 6)) (_ BitVec 256))
(declare-fun stack_s ((_ BitVec 256) (_ BitVec 256) (_ BitVec 256) Int (_ BitVec 6)) (_ BitVec 256))
(declare-fun sc_s (Int) (_ BitVec 6))
(declare-fun used_gas_t ((_ BitVec 256) (_ BitVec 256) (_ BitVec 256) Int) Int)
(declare-fun used_gas_s ((_ BitVec 256) (_ BitVec 256) (_ BitVec 256) Int) Int)
(assert
 (exists ((x_0 (_ BitVec 256)) (x_1 (_ BitVec 256)) (x_2 (_ BitVec 256)) )(let (($x9011 (forall ((w (_ BitVec 256)) )(let ((?x2750 (storage_t x_0 x_1 x_2 2 w)))
 (let ((?x1486 (storage_s x_0 x_1 x_2 4 w)))
 (= ?x1486 ?x2750))))
 ))
 (let (($x8412 (exc_halt_t 2)))
 (let (($x9175 (exc_halt_s 4)))
 (let (($x3580 (= $x9175 $x8412)))
 (let (($x8420 (forall ((n (_ BitVec 6)) )(let ((?x11248 (sc_t 2)))
 (let (($x10889 (bvsle ?x11248 n)))
 (let ((?x4199 (stack_t x_0 x_1 x_2 2 n)))
 (let ((?x4024 (stack_s x_0 x_1 x_2 4 n)))
 (let (($x4612 (= ?x4024 ?x4199)))
 (or $x4612 $x10889)))))))
 ))
 (let ((?x11248 (sc_t 2)))
 (let ((?x9433 (sc_s 4)))
 (let (($x7802 (= ?x9433 ?x11248)))
 (let (($x5663 (not (and $x7802 $x8420 $x3580 $x9011))))
 (let ((?x4238 (used_gas_t x_0 x_1 x_2 0)))
 (let ((?x671 (used_gas_s x_0 x_1 x_2 0)))
 (let (($x1043 (= ?x671 ?x4238)))
 (let (($x4302 (forall ((w (_ BitVec 256)) )(let ((?x7996 (storage_t x_0 x_1 x_2 0 w)))
 (let ((?x10402 (storage_s x_0 x_1 x_2 0 w)))
 (= ?x10402 ?x7996))))
 ))
 (let (($x56 (exc_halt_t 0)))
 (let (($x57 (exc_halt_s 0)))
 (let (($x58 (= $x57 $x56)))
 (let (($x592 (forall ((n (_ BitVec 6)) )(let ((?x7001 (stack_t x_0 x_1 x_2 0 n)))
 (let ((?x11017 (stack_s x_0 x_1 x_2 0 n)))
 (let (($x5008 (= ?x11017 ?x7001)))
 (let ((?x63 (sc_t 0)))
 (let (($x848 (bvsle ?x63 n)))
 (or $x848 $x5008)))))))
 ))
 (let ((?x63 (sc_t 0)))
 (let ((?x72 (sc_s 0)))
 (let (($x73 (= ?x72 ?x63)))
 (let (($x6716 (= $x8412 (or (exc_halt_t 1) (not (bvsle (_ bv0 6) (bvadd (_ bv62 6) (sc_t 1))))))))
 (let (($x11792 (forall ((w (_ BitVec 256)) )(let ((?x6952 (storage_t x_0 x_1 x_2 1 w)))
 (let ((?x2750 (storage_t x_0 x_1 x_2 2 w)))
 (= ?x2750 ?x6952))))
 ))
 (let (($x8793 (forall ((n (_ BitVec 6)) )(let ((?x10553 (stack_t x_0 x_1 x_2 1 n)))
 (let ((?x4199 (stack_t x_0 x_1 x_2 2 n)))
 (let (($x4820 (= ?x4199 ?x10553)))
 (let ((?x9666 (sc_t 1)))
 (let ((?x1208 (bvadd (_ bv62 6) ?x9666)))
 (let (($x4032 (bvsle ?x1208 n)))
 (or $x4032 $x4820))))))))
 ))
 (let ((?x9666 (sc_t 1)))
 (let (($x3721 (= ?x11248 ?x9666)))
 (let ((?x8346 (used_gas_t x_0 x_1 x_2 2)))
 (let ((?x4486 (bvadd (_ bv63 6) ?x9666)))
 (let ((?x9801 (stack_t x_0 x_1 x_2 1 ?x4486)))
 (let ((?x1208 (bvadd (_ bv62 6) ?x9666)))
 (let ((?x5990 (stack_t x_0 x_1 x_2 1 ?x1208)))
 (let (($x1865 (forall ((w (_ BitVec 256)) )(let ((?x7996 (storage_t x_0 x_1 x_2 0 w)))
 (let ((?x6952 (storage_t x_0 x_1 x_2 1 w)))
 (= ?x6952 ?x7996))))
 ))
 (let (($x11756 (forall ((n (_ BitVec 6)) )(let ((?x7001 (stack_t x_0 x_1 x_2 0 n)))
 (let ((?x10553 (stack_t x_0 x_1 x_2 1 n)))
 (let (($x7944 (= ?x10553 ?x7001)))
 (or (bvsle (bvadd (_ bv63 6) (sc_t 0)) n) $x7944)))))
 ))
 (let (($x613 (= $x9175 (or (exc_halt_s 3) (not (bvsle (_ bv0 6) (bvadd (_ bv63 6) (sc_s 3))))))))
 (let (($x2353 (forall ((w (_ BitVec 256)) )(let ((?x1726 (storage_s x_0 x_1 x_2 3 w)))
 (let ((?x1486 (storage_s x_0 x_1 x_2 4 w)))
 (= ?x1486 ?x1726))))
 ))
 (let (($x1849 (forall ((n (_ BitVec 6)) )(let ((?x3851 (sc_s 3)))
 (let ((?x11204 (bvadd (_ bv63 6) ?x3851)))
 (let (($x10866 (bvsle ?x11204 n)))
 (let ((?x10698 (stack_s x_0 x_1 x_2 3 n)))
 (let ((?x4024 (stack_s x_0 x_1 x_2 4 n)))
 (or (= ?x4024 ?x10698) $x10866)))))))
 ))
 (let ((?x3851 (sc_s 3)))
 (let ((?x11204 (bvadd (_ bv63 6) ?x3851)))
 (let (($x5034 (= ?x9433 ?x11204)))
 (let (($x1152 (= (used_gas_s x_0 x_1 x_2 4) (+ 2 (used_gas_s x_0 x_1 x_2 3)))))
 (let (($x8103 (exc_halt_s 3)))
 (let (($x5428 (= $x8103 (or (exc_halt_s 2) (not (bvsle (_ bv0 6) (bvadd (_ bv62 6) (sc_s 2))))))))
 (let (($x11303 (forall ((w (_ BitVec 256)) )(let ((?x10078 (storage_s x_0 x_1 x_2 2 w)))
 (let ((?x1726 (storage_s x_0 x_1 x_2 3 w)))
 (= ?x1726 ?x10078))))
 ))
 (let (($x8422 (forall ((n (_ BitVec 6)) )(let ((?x2272 (sc_s 2)))
 (let ((?x3742 (bvadd (_ bv62 6) ?x2272)))
 (let (($x9400 (bvsle ?x3742 n)))
 (let ((?x4452 (stack_s x_0 x_1 x_2 2 n)))
 (let ((?x10698 (stack_s x_0 x_1 x_2 3 n)))
 (let (($x1058 (= ?x10698 ?x4452)))
 (or $x1058 $x9400))))))))
 ))
 (let ((?x2272 (sc_s 2)))
 (let (($x8165 (= ?x3851 ?x2272)))
 (let ((?x2057 (used_gas_s x_0 x_1 x_2 3)))
 (let ((?x6147 (bvadd (_ bv63 6) ?x2272)))
 (let ((?x372 (stack_s x_0 x_1 x_2 2 ?x6147)))
 (let ((?x3742 (bvadd (_ bv62 6) ?x2272)))
 (let ((?x7162 (stack_s x_0 x_1 x_2 2 ?x3742)))
 (let (($x10052 (exc_halt_s 2)))
 (let (($x9322 (= $x10052 (or (exc_halt_s 1) (not (bvsle (_ bv0 6) (bvadd (_ bv61 6) (sc_s 1))))))))
 (let (($x10538 (forall ((w (_ BitVec 256)) )(let ((?x11057 (storage_s x_0 x_1 x_2 1 w)))
 (let ((?x10078 (storage_s x_0 x_1 x_2 2 w)))
 (= ?x10078 ?x11057))))
 ))
 (let (($x11718 (forall ((n (_ BitVec 6)) )(let ((?x154 (sc_s 1)))
 (let ((?x859 (bvadd (_ bv61 6) ?x154)))
 (let (($x10833 (bvsle ?x859 n)))
 (let ((?x3921 (stack_s x_0 x_1 x_2 1 n)))
 (let ((?x4452 (stack_s x_0 x_1 x_2 2 n)))
 (let (($x10226 (= ?x4452 ?x3921)))
 (or $x10226 $x10833))))))))
 ))
 (let ((?x154 (sc_s 1)))
 (let (($x6634 (= ?x2272 ?x154)))
 (let ((?x2301 (used_gas_s x_0 x_1 x_2 2)))
 (let (($x11485 (= ?x2301 (+ 3 (used_gas_s x_0 x_1 x_2 1)))))
 (let ((?x4912 (bvadd (_ bv62 6) ?x154)))
 (let ((?x2441 (stack_s x_0 x_1 x_2 1 ?x4912)))
 (let (($x3166 (= ?x7162 ?x2441)))
 (let ((?x9696 (bvadd (_ bv63 6) ?x154)))
 (let ((?x179 (stack_s x_0 x_1 x_2 1 ?x9696)))
 (let ((?x7475 (bvadd (_ bv61 6) ?x2272)))
 (let ((?x7640 (stack_s x_0 x_1 x_2 2 ?x7475)))
 (let (($x11783 (forall ((w (_ BitVec 256)) )(let ((?x10402 (storage_s x_0 x_1 x_2 0 w)))
 (let ((?x11057 (storage_s x_0 x_1 x_2 1 w)))
 (= ?x11057 ?x10402))))
 ))
 (let (($x8203 (forall ((n (_ BitVec 6)) )(let ((?x72 (sc_s 0)))
 (let ((?x4554 (bvadd (_ bv62 6) ?x72)))
 (let (($x11749 (bvsle ?x4554 n)))
 (let ((?x11017 (stack_s x_0 x_1 x_2 0 n)))
 (let ((?x3921 (stack_s x_0 x_1 x_2 1 n)))
 (let (($x4471 (= ?x3921 ?x11017)))
 (or $x4471 $x11749))))))))
 ))
 (let (($x4934 (= ?x154 ?x72)))
 (let ((?x7180 (used_gas_s x_0 x_1 x_2 1)))
 (let (($x2751 (= ?x7180 (+ 3 ?x671))))
 (let (($x8683 (forall ((w (_ BitVec 256)) )(let ((?x10402 (storage_s x_0 x_1 x_2 0 w)))
 (= ?x10402 (_ bv0 256))))
 ))
 (let (($x197 (= ?x671 0)))
 (let (($x10373 (not $x57)))
 (let (($x4949 (= (stack_s x_0 x_1 x_2 0 (_ bv2 6)) x_2)))
 (let (($x5782 (= (stack_s x_0 x_1 x_2 0 (_ bv1 6)) x_1)))
 (let (($x538 (= (stack_s x_0 x_1 x_2 0 (_ bv0 6)) x_0)))
 (let (($x6307 (= ?x72 (_ bv3 6))))
 (and $x6307 $x538 $x5782 $x4949 $x10373 $x197 $x8683 (= ?x179 (stack_s x_0 x_1 x_2 0 (bvadd (_ bv62 6) ?x72))) (= ?x2441 (stack_s x_0 x_1 x_2 0 (bvadd (_ bv63 6) ?x72))) $x2751 $x4934 $x8203 $x11783 (= (exc_halt_s 1) (or $x57 (not (bvsle (_ bv0 6) (bvadd (_ bv62 6) ?x72))))) (= ?x372 (stack_s x_0 x_1 x_2 1 (bvadd (_ bv61 6) ?x154))) (= ?x7640 ?x179) $x3166 $x11485 $x6634 $x11718 $x10538 $x9322 (= (stack_s x_0 x_1 x_2 3 ?x11204) ?x7162) (= (stack_s x_0 x_1 x_2 3 (bvadd (_ bv62 6) ?x3851)) ?x372) (= ?x2057 (+ 3 ?x2301)) $x8165 $x8422 $x11303 $x5428 $x1152 $x5034 $x1849 $x2353 $x613 (= (used_gas_t x_0 x_1 x_2 1) (+ 2 ?x4238)) (= ?x9666 (bvadd (_ bv63 6) ?x63)) $x11756 $x1865 (= (exc_halt_t 1) (or $x56 (not (bvsle (_ bv0 6) (bvadd (_ bv63 6) ?x63))))) (= (stack_t x_0 x_1 x_2 2 (bvadd (_ bv63 6) ?x11248)) ?x5990) (= (stack_t x_0 x_1 x_2 2 (bvadd (_ bv62 6) ?x11248)) ?x9801) (= ?x8346 (+ 3 (used_gas_t x_0 x_1 x_2 1))) $x3721 $x8793 $x11792 $x6716 $x73 $x592 $x58 $x4302 $x1043 $x5663)))))))))))))))))))))))))))))))))))))))))))))))))))))))))))))))))))))))))))))))
 )
(check-sat)
(get-proof)
